*SENSE:Minimize
NAME          MODEL
ROWS
 N  OBJ
 L  C0000000
 E  C0000001
 E  C0000002
COLUMNS
    MARK      'MARKER'                 'INTORG'
    X0000000  C0000001   1.000000000000e+00
    X0000000  OBJ       -5.092842065815e+02
    MARK      'MARKER'                 'INTEND'
    MARK      'MARKER'                 'INTORG'
    X0000001  C0000001   1.000000000000e+00
    X0000001  C0000000   1.000000000000e+00
    X0000001  OBJ       -5.168406089101e+02
    MARK      'MARKER'                 'INTEND'
    MARK      'MARKER'                 'INTORG'
    X0000002  C0000002   1.000000000000e+00
    X0000002  OBJ       -4.606256467624e+02
    MARK      'MARKER'                 'INTEND'
    MARK      'MARKER'                 'INTORG'
    X0000003  C0000002   1.000000000000e+00
    X0000003  C0000000   1.000000000000e+00
    X0000003  OBJ       -4.627494256568e+02
    MARK      'MARKER'                 'INTEND'
RHS
    RHS       C0000000   1.000000000000e+00
    RHS       C0000001   1.000000000000e+00
    RHS       C0000002   1.000000000000e+00
BOUNDS
 BV BND       X0000000
 BV BND       X0000001
 BV BND       X0000002
 BV BND       X0000003
ENDATA
